p cnf 200 1110
-101 -94 0
-101 17 0
-101 96 0
-101 100 0
-101 -74 0
-101 -97 0
-101 -45 0
-101 -46 0
-101 89 0
-101 22 0
101 94 -17 -96 -100 74 97 45 46 -89 -22 0
-102 89 0
-102 -32 0
-102 40 0
-102 -98 0
-102 76 0
-102 -95 0
-102 -39 0
-102 81 0
-102 51 0
-102 -93 0
102 -89 32 -40 98 -76 95 39 -81 -51 93 0
-103 -63 0
-103 -48 0
-103 -80 0
-103 -90 0
-103 -26 0
-103 58 0
-103 43 0
-103 14 0
-103 70 0
-103 59 0
103 63 48 80 90 26 -58 -43 -14 -70 -59 0
-104 86 0
-104 -25 0
-104 -62 0
-104 55 0
-104 -13 0
-104 49 0
-104 26 0
-104 -11 0
-104 -18 0
-104 63 0
104 -86 25 62 -55 13 -49 -26 11 18 -63 0
-105 -67 0
-105 -68 0
-105 -61 0
-105 -82 0
-105 -12 0
-105 -53 0
-105 41 0
-105 29 0
-105 90 0
-105 -49 0
105 67 68 61 82 12 53 -41 -29 -90 49 0
-106 -96 0
-106 13 0
-106 -33 0
-106 58 0
-106 -75 0
-106 -36 0
-106 60 0
-106 -67 0
-106 -11 0
-106 -70 0
106 96 -13 33 -58 75 36 -60 67 11 70 0
-107 60 0
-107 38 0
-107 -77 0
-107 4 0
-107 92 0
-107 -18 0
-107 -43 0
-107 96 0
-107 -22 0
-107 -73 0
107 -60 -38 77 -4 -92 18 43 -96 22 73 0
-108 63 0
-108 74 0
-108 52 0
-108 70 0
-108 34 0
-108 -81 0
-108 -48 0
-108 21 0
-108 -18 0
-108 -50 0
108 -63 -74 -52 -70 -34 81 48 -21 18 50 0
-109 52 0
-109 -77 0
-109 47 0
-109 -2 0
-109 -26 0
-109 -60 0
-109 -71 0
-109 -24 0
-109 53 0
-109 -83 0
109 -52 77 -47 2 26 60 71 24 -53 83 0
-110 49 0
-110 -61 0
-110 73 0
-110 69 0
-110 13 0
-110 9 0
-110 30 0
-110 88 0
-110 94 0
-110 -97 0
110 -49 61 -73 -69 -13 -9 -30 -88 -94 97 0
101 102 103 104 105 106 107 108 109 110 0
-111 21 0
-111 -80 0
-111 51 0
-111 -62 0
-111 -79 0
-111 49 0
-111 12 0
-111 26 0
-111 -100 0
-111 -81 0
111 -21 80 -51 62 79 -49 -12 -26 100 81 0
-112 -53 0
-112 -60 0
-112 27 0
-112 84 0
-112 -91 0
-112 -93 0
-112 73 0
-112 32 0
-112 -26 0
-112 -23 0
112 53 60 -27 -84 91 93 -73 -32 26 23 0
-113 14 0
-113 -8 0
-113 1 0
-113 -87 0
-113 -70 0
-113 -21 0
-113 -99 0
-113 -83 0
-113 -24 0
-113 89 0
113 -14 8 -1 87 70 21 99 83 24 -89 0
-114 72 0
-114 -88 0
-114 -9 0
-114 75 0
-114 -17 0
-114 1 0
-114 -85 0
-114 4 0
-114 90 0
-114 -41 0
114 -72 88 9 -75 17 -1 85 -4 -90 41 0
-115 96 0
-115 76 0
-115 -11 0
-115 -17 0
-115 -86 0
-115 -9 0
-115 -78 0
-115 83 0
-115 -55 0
-115 66 0
115 -96 -76 11 17 86 9 78 -83 55 -66 0
-116 -47 0
-116 40 0
-116 15 0
-116 97 0
-116 -16 0
-116 54 0
-116 51 0
-116 53 0
-116 -60 0
-116 25 0
116 47 -40 -15 -97 16 -54 -51 -53 60 -25 0
-117 -6 0
-117 56 0
-117 -95 0
-117 -65 0
-117 -36 0
-117 78 0
-117 16 0
-117 75 0
-117 -22 0
-117 47 0
117 6 -56 95 65 36 -78 -16 -75 22 -47 0
-118 89 0
-118 71 0
-118 -83 0
-118 84 0
-118 66 0
-118 32 0
-118 -28 0
-118 -94 0
-118 63 0
-118 -23 0
118 -89 -71 83 -84 -66 -32 28 94 -63 23 0
-119 80 0
-119 49 0
-119 -52 0
-119 2 0
-119 -4 0
-119 10 0
-119 -35 0
-119 51 0
-119 100 0
-119 45 0
119 -80 -49 52 -2 4 -10 35 -51 -100 -45 0
-120 26 0
-120 53 0
-120 79 0
-120 -64 0
-120 -28 0
-120 21 0
-120 75 0
-120 81 0
-120 -60 0
-120 -78 0
120 -26 -53 -79 64 28 -21 -75 -81 60 78 0
111 112 113 114 115 116 117 118 119 120 0
-121 90 0
-121 100 0
-121 -27 0
-121 4 0
-121 34 0
-121 -36 0
-121 -83 0
-121 93 0
-121 48 0
-121 56 0
121 -90 -100 27 -4 -34 36 83 -93 -48 -56 0
-122 52 0
-122 57 0
-122 41 0
-122 -80 0
-122 -85 0
-122 71 0
-122 1 0
-122 -32 0
-122 -45 0
-122 75 0
122 -52 -57 -41 80 85 -71 -1 32 45 -75 0
-123 24 0
-123 34 0
-123 40 0
-123 -77 0
-123 21 0
-123 -4 0
-123 -15 0
-123 16 0
-123 79 0
-123 -37 0
123 -24 -34 -40 77 -21 4 15 -16 -79 37 0
-124 11 0
-124 83 0
-124 -46 0
-124 -37 0
-124 -78 0
-124 51 0
-124 -70 0
-124 60 0
-124 -40 0
-124 82 0
124 -11 -83 46 37 78 -51 70 -60 40 -82 0
-125 44 0
-125 -6 0
-125 75 0
-125 -93 0
-125 -94 0
-125 -34 0
-125 63 0
-125 83 0
-125 -54 0
-125 66 0
125 -44 6 -75 93 94 34 -63 -83 54 -66 0
-126 7 0
-126 -15 0
-126 -32 0
-126 19 0
-126 -1 0
-126 85 0
-126 -59 0
-126 -95 0
-126 -97 0
-126 89 0
126 -7 15 32 -19 1 -85 59 95 97 -89 0
-127 27 0
-127 9 0
-127 26 0
-127 -18 0
-127 -46 0
-127 30 0
-127 2 0
-127 12 0
-127 33 0
-127 -88 0
127 -27 -9 -26 18 46 -30 -2 -12 -33 88 0
-128 30 0
-128 46 0
-128 -51 0
-128 29 0
-128 -32 0
-128 -64 0
-128 98 0
-128 79 0
-128 -55 0
-128 -85 0
128 -30 -46 51 -29 32 64 -98 -79 55 85 0
-129 75 0
-129 43 0
-129 85 0
-129 73 0
-129 -66 0
-129 -69 0
-129 -8 0
-129 -92 0
-129 -40 0
-129 -25 0
129 -75 -43 -85 -73 66 69 8 92 40 25 0
-130 -96 0
-130 21 0
-130 43 0
-130 13 0
-130 26 0
-130 67 0
-130 88 0
-130 -16 0
-130 -4 0
-130 19 0
130 96 -21 -43 -13 -26 -67 -88 16 4 -19 0
121 122 123 124 125 126 127 128 129 130 0
-131 -17 0
-131 -61 0
-131 74 0
-131 -26 0
-131 4 0
-131 79 0
-131 69 0
-131 85 0
-131 -16 0
-131 -77 0
131 17 61 -74 26 -4 -79 -69 -85 16 77 0
-132 9 0
-132 20 0
-132 -62 0
-132 89 0
-132 -11 0
-132 -14 0
-132 34 0
-132 -17 0
-132 76 0
-132 71 0
132 -9 -20 62 -89 11 14 -34 17 -76 -71 0
-133 -32 0
-133 -84 0
-133 73 0
-133 -34 0
-133 -4 0
-133 41 0
-133 76 0
-133 12 0
-133 -89 0
-133 45 0
133 32 84 -73 34 4 -41 -76 -12 89 -45 0
-134 -57 0
-134 -71 0
-134 54 0
-134 -93 0
-134 62 0
-134 -32 0
-134 60 0
-134 -97 0
-134 50 0
-134 37 0
134 57 71 -54 93 -62 32 -60 97 -50 -37 0
-135 -100 0
-135 70 0
-135 25 0
-135 6 0
-135 -19 0
-135 -73 0
-135 -53 0
-135 -24 0
-135 16 0
-135 93 0
135 100 -70 -25 -6 19 73 53 24 -16 -93 0
-136 82 0
-136 -85 0
-136 31 0
-136 -36 0
-136 39 0
-136 -29 0
-136 -62 0
-136 -45 0
-136 -66 0
-136 -8 0
136 -82 85 -31 36 -39 29 62 45 66 8 0
-137 10 0
-137 67 0
-137 20 0
-137 -40 0
-137 29 0
-137 69 0
-137 38 0
-137 19 0
-137 -51 0
-137 -83 0
137 -10 -67 -20 40 -29 -69 -38 -19 51 83 0
-138 -49 0
-138 -90 0
-138 -8 0
-138 95 0
-138 33 0
-138 -47 0
-138 -63 0
-138 -97 0
-138 -45 0
-138 36 0
138 49 90 8 -95 -33 47 63 97 45 -36 0
-139 85 0
-139 76 0
-139 -5 0
-139 29 0
-139 54 0
-139 40 0
-139 -58 0
-139 -33 0
-139 71 0
-139 -74 0
139 -85 -76 5 -29 -54 -40 58 33 -71 74 0
-140 -10 0
-140 65 0
-140 -38 0
-140 -49 0
-140 -20 0
-140 75 0
-140 84 0
-140 96 0
-140 -24 0
-140 76 0
140 10 -65 38 49 20 -75 -84 -96 24 -76 0
131 132 133 134 135 136 137 138 139 140 0
-141 81 0
-141 -3 0
-141 6 0
-141 -23 0
-141 -72 0
-141 89 0
-141 -5 0
-141 -51 0
-141 13 0
-141 -9 0
141 -81 3 -6 23 72 -89 5 51 -13 9 0
-142 51 0
-142 28 0
-142 -97 0
-142 88 0
-142 32 0
-142 2 0
-142 79 0
-142 58 0
-142 -48 0
-142 57 0
142 -51 -28 97 -88 -32 -2 -79 -58 48 -57 0
-143 49 0
-143 -16 0
-143 22 0
-143 85 0
-143 89 0
-143 74 0
-143 -98 0
-143 36 0
-143 100 0
-143 -34 0
143 -49 16 -22 -85 -89 -74 98 -36 -100 34 0
-144 25 0
-144 -75 0
-144 70 0
-144 -39 0
-144 -92 0
-144 -37 0
-144 88 0
-144 -98 0
-144 5 0
-144 -38 0
144 -25 75 -70 39 92 37 -88 98 -5 38 0
-145 51 0
-145 -96 0
-145 -28 0
-145 -64 0
-145 87 0
-145 -49 0
-145 22 0
-145 46 0
-145 45 0
-145 94 0
145 -51 96 28 64 -87 49 -22 -46 -45 -94 0
-146 58 0
-146 -7 0
-146 84 0
-146 56 0
-146 14 0
-146 75 0
-146 -48 0
-146 -6 0
-146 -2 0
-146 30 0
146 -58 7 -84 -56 -14 -75 48 6 2 -30 0
-147 2 0
-147 -74 0
-147 -60 0
-147 94 0
-147 -81 0
-147 95 0
-147 -76 0
-147 100 0
-147 98 0
-147 80 0
147 -2 74 60 -94 81 -95 76 -100 -98 -80 0
-148 82 0
-148 55 0
-148 5 0
-148 7 0
-148 -26 0
-148 3 0
-148 -24 0
-148 -39 0
-148 59 0
-148 -99 0
148 -82 -55 -5 -7 26 -3 24 39 -59 99 0
-149 98 0
-149 71 0
-149 -60 0
-149 88 0
-149 6 0
-149 15 0
-149 19 0
-149 -99 0
-149 59 0
-149 -21 0
149 -98 -71 60 -88 -6 -15 -19 99 -59 21 0
-150 42 0
-150 -74 0
-150 -79 0
-150 -26 0
-150 45 0
-150 -70 0
-150 72 0
-150 16 0
-150 85 0
-150 30 0
150 -42 74 79 26 -45 70 -72 -16 -85 -30 0
141 142 143 144 145 146 147 148 149 150 0
-151 -28 0
-151 -14 0
-151 -35 0
-151 -15 0
-151 -57 0
-151 -75 0
-151 -99 0
-151 10 0
-151 89 0
-151 -42 0
151 28 14 35 15 57 75 99 -10 -89 42 0
-152 -18 0
-152 54 0
-152 88 0
-152 89 0
-152 1 0
-152 90 0
-152 86 0
-152 60 0
-152 12 0
-152 37 0
152 18 -54 -88 -89 -1 -90 -86 -60 -12 -37 0
-153 -97 0
-153 31 0
-153 -72 0
-153 62 0
-153 73 0
-153 -67 0
-153 15 0
-153 91 0
-153 -50 0
-153 5 0
153 97 -31 72 -62 -73 67 -15 -91 50 -5 0
-154 69 0
-154 33 0
-154 -77 0
-154 -56 0
-154 -85 0
-154 -45 0
-154 -2 0
-154 -22 0
-154 -38 0
-154 -13 0
154 -69 -33 77 56 85 45 2 22 38 13 0
-155 -28 0
-155 60 0
-155 55 0
-155 23 0
-155 79 0
-155 89 0
-155 -87 0
-155 -33 0
-155 -57 0
-155 -6 0
155 28 -60 -55 -23 -79 -89 87 33 57 6 0
-156 -60 0
-156 -51 0
-156 52 0
-156 -97 0
-156 31 0
-156 -64 0
-156 -78 0
-156 24 0
-156 -86 0
-156 -1 0
156 60 51 -52 97 -31 64 78 -24 86 1 0
-157 -73 0
-157 66 0
-157 -68 0
-157 -75 0
-157 46 0
-157 -38 0
-157 24 0
-157 28 0
-157 9 0
-157 54 0
157 73 -66 68 75 -46 38 -24 -28 -9 -54 0
-158 -98 0
-158 -38 0
-158 -26 0
-158 -89 0
-158 -100 0
-158 82 0
-158 -6 0
-158 -41 0
-158 -78 0
-158 -15 0
158 98 38 26 89 100 -82 6 41 78 15 0
-159 -36 0
-159 -13 0
-159 14 0
-159 -32 0
-159 79 0
-159 11 0
-159 24 0
-159 48 0
-159 42 0
-159 2 0
159 36 13 -14 32 -79 -11 -24 -48 -42 -2 0
-160 26 0
-160 49 0
-160 -10 0
-160 52 0
-160 28 0
-160 -76 0
-160 -70 0
-160 45 0
-160 32 0
-160 34 0
160 -26 -49 10 -52 -28 76 70 -45 -32 -34 0
151 152 153 154 155 156 157 158 159 160 0
-161 98 0
-161 1 0
-161 -86 0
-161 -49 0
-161 52 0
-161 77 0
-161 91 0
-161 -38 0
-161 81 0
-161 64 0
161 -98 -1 86 49 -52 -77 -91 38 -81 -64 0
-162 85 0
-162 31 0
-162 12 0
-162 55 0
-162 -16 0
-162 88 0
-162 -69 0
-162 58 0
-162 -62 0
-162 92 0
162 -85 -31 -12 -55 16 -88 69 -58 62 -92 0
-163 -13 0
-163 -44 0
-163 -63 0
-163 -75 0
-163 79 0
-163 53 0
-163 55 0
-163 91 0
-163 -72 0
-163 -74 0
163 13 44 63 75 -79 -53 -55 -91 72 74 0
-164 42 0
-164 77 0
-164 7 0
-164 73 0
-164 -31 0
-164 41 0
-164 94 0
-164 -92 0
-164 37 0
-164 97 0
164 -42 -77 -7 -73 31 -41 -94 92 -37 -97 0
-165 -11 0
-165 -66 0
-165 71 0
-165 -82 0
-165 51 0
-165 -93 0
-165 53 0
-165 -43 0
-165 30 0
-165 -24 0
165 11 66 -71 82 -51 93 -53 43 -30 24 0
-166 7 0
-166 -67 0
-166 64 0
-166 46 0
-166 -73 0
-166 -50 0
-166 72 0
-166 -45 0
-166 -65 0
-166 -100 0
166 -7 67 -64 -46 73 50 -72 45 65 100 0
-167 45 0
-167 -8 0
-167 54 0
-167 -53 0
-167 36 0
-167 -13 0
-167 -4 0
-167 -18 0
-167 -82 0
-167 31 0
167 -45 8 -54 53 -36 13 4 18 82 -31 0
-168 97 0
-168 14 0
-168 32 0
-168 -44 0
-168 81 0
-168 -22 0
-168 5 0
-168 75 0
-168 39 0
-168 83 0
168 -97 -14 -32 44 -81 22 -5 -75 -39 -83 0
-169 10 0
-169 -66 0
-169 69 0
-169 96 0
-169 -6 0
-169 -21 0
-169 -23 0
-169 -100 0
-169 45 0
-169 89 0
169 -10 66 -69 -96 6 21 23 100 -45 -89 0
-170 -60 0
-170 16 0
-170 77 0
-170 30 0
-170 -83 0
-170 54 0
-170 -59 0
-170 9 0
-170 75 0
-170 -70 0
170 60 -16 -77 -30 83 -54 59 -9 -75 70 0
161 162 163 164 165 166 167 168 169 170 0
-171 44 0
-171 -84 0
-171 -95 0
-171 -27 0
-171 75 0
-171 72 0
-171 16 0
-171 32 0
-171 -40 0
-171 26 0
171 -44 84 95 27 -75 -72 -16 -32 40 -26 0
-172 74 0
-172 -28 0
-172 66 0
-172 -36 0
-172 -67 0
-172 -14 0
-172 -41 0
-172 -11 0
-172 -96 0
-172 -30 0
172 -74 28 -66 36 67 14 41 11 96 30 0
-173 -38 0
-173 77 0
-173 -81 0
-173 60 0
-173 -93 0
-173 -33 0
-173 4 0
-173 -87 0
-173 57 0
-173 -92 0
173 38 -77 81 -60 93 33 -4 87 -57 92 0
-174 -51 0
-174 -7 0
-174 63 0
-174 28 0
-174 -93 0
-174 -47 0
-174 -22 0
-174 -15 0
-174 -16 0
-174 95 0
174 51 7 -63 -28 93 47 22 15 16 -95 0
-175 40 0
-175 8 0
-175 53 0
-175 62 0
-175 -99 0
-175 -57 0
-175 50 0
-175 32 0
-175 56 0
-175 -13 0
175 -40 -8 -53 -62 99 57 -50 -32 -56 13 0
-176 -50 0
-176 93 0
-176 -27 0
-176 -99 0
-176 -92 0
-176 -60 0
-176 100 0
-176 -41 0
-176 56 0
-176 48 0
176 50 -93 27 99 92 60 -100 41 -56 -48 0
-177 52 0
-177 46 0
-177 -4 0
-177 -66 0
-177 -53 0
-177 -36 0
-177 96 0
-177 72 0
-177 -65 0
-177 -5 0
177 -52 -46 4 66 53 36 -96 -72 65 5 0
-178 42 0
-178 32 0
-178 71 0
-178 -13 0
-178 -30 0
-178 -70 0
-178 55 0
-178 -99 0
-178 -74 0
-178 37 0
178 -42 -32 -71 13 30 70 -55 99 74 -37 0
-179 46 0
-179 -95 0
-179 -86 0
-179 78 0
-179 83 0
-179 -18 0
-179 81 0
-179 54 0
-179 71 0
-179 -1 0
179 -46 95 86 -78 -83 18 -81 -54 -71 1 0
-180 -21 0
-180 71 0
-180 -65 0
-180 -48 0
-180 -83 0
-180 -3 0
-180 -70 0
-180 59 0
-180 -8 0
-180 -28 0
180 21 -71 65 48 83 3 70 -59 8 28 0
171 172 173 174 175 176 177 178 179 180 0
-181 -21 0
-181 77 0
-181 46 0
-181 -92 0
-181 30 0
-181 29 0
-181 -58 0
-181 -67 0
-181 -65 0
-181 35 0
181 21 -77 -46 92 -30 -29 58 67 65 -35 0
-182 -64 0
-182 44 0
-182 -10 0
-182 5 0
-182 35 0
-182 -46 0
-182 -76 0
-182 -61 0
-182 -57 0
-182 -4 0
182 64 -44 10 -5 -35 46 76 61 57 4 0
-183 99 0
-183 5 0
-183 -83 0
-183 -55 0
-183 -61 0
-183 73 0
-183 -78 0
-183 2 0
-183 -4 0
-183 -15 0
183 -99 -5 83 55 61 -73 78 -2 4 15 0
-184 -35 0
-184 16 0
-184 -25 0
-184 53 0
-184 -55 0
-184 65 0
-184 -76 0
-184 62 0
-184 60 0
-184 -85 0
184 35 -16 25 -53 55 -65 76 -62 -60 85 0
-185 -41 0
-185 9 0
-185 -74 0
-185 75 0
-185 -84 0
-185 -64 0
-185 82 0
-185 -26 0
-185 -37 0
-185 45 0
185 41 -9 74 -75 84 64 -82 26 37 -45 0
-186 29 0
-186 -27 0
-186 56 0
-186 -92 0
-186 21 0
-186 48 0
-186 50 0
-186 71 0
-186 -79 0
-186 10 0
186 -29 27 -56 92 -21 -48 -50 -71 79 -10 0
-187 18 0
-187 91 0
-187 54 0
-187 -87 0
-187 8 0
-187 22 0
-187 -2 0
-187 -84 0
-187 77 0
-187 79 0
187 -18 -91 -54 87 -8 -22 2 84 -77 -79 0
-188 98 0
-188 -40 0
-188 -56 0
-188 27 0
-188 -17 0
-188 -55 0
-188 -1 0
-188 66 0
-188 58 0
-188 48 0
188 -98 40 56 -27 17 55 1 -66 -58 -48 0
-189 66 0
-189 10 0
-189 -91 0
-189 -95 0
-189 -5 0
-189 -31 0
-189 -16 0
-189 62 0
-189 -11 0
-189 -56 0
189 -66 -10 91 95 5 31 16 -62 11 56 0
-190 8 0
-190 -31 0
-190 -3 0
-190 84 0
-190 11 0
-190 -48 0
-190 43 0
-190 -22 0
-190 38 0
-190 -2 0
190 -8 31 3 -84 -11 48 -43 22 -38 2 0
181 182 183 184 185 186 187 188 189 190 0
-191 62 0
-191 52 0
-191 50 0
-191 -28 0
-191 -57 0
-191 -20 0
-191 -39 0
-191 -65 0
-191 -6 0
-191 36 0
191 -62 -52 -50 28 57 20 39 65 6 -36 0
-192 27 0
-192 -67 0
-192 -41 0
-192 18 0
-192 87 0
-192 70 0
-192 58 0
-192 -30 0
-192 -90 0
-192 98 0
192 -27 67 41 -18 -87 -70 -58 30 90 -98 0
-193 34 0
-193 -33 0
-193 84 0
-193 79 0
-193 95 0
-193 7 0
-193 -64 0
-193 -20 0
-193 -68 0
-193 14 0
193 -34 33 -84 -79 -95 -7 64 20 68 -14 0
-194 67 0
-194 96 0
-194 82 0
-194 44 0
-194 83 0
-194 55 0
-194 -43 0
-194 1 0
-194 -38 0
-194 -8 0
194 -67 -96 -82 -44 -83 -55 43 -1 38 8 0
-195 75 0
-195 9 0
-195 58 0
-195 84 0
-195 -37 0
-195 -2 0
-195 -79 0
-195 26 0
-195 -62 0
-195 24 0
195 -75 -9 -58 -84 37 2 79 -26 62 -24 0
-196 9 0
-196 -68 0
-196 -61 0
-196 -86 0
-196 -73 0
-196 48 0
-196 88 0
-196 -79 0
-196 -83 0
-196 76 0
196 -9 68 61 86 73 -48 -88 79 83 -76 0
-197 25 0
-197 -42 0
-197 -58 0
-197 16 0
-197 -61 0
-197 96 0
-197 -62 0
-197 -31 0
-197 100 0
-197 37 0
197 -25 42 58 -16 61 -96 62 31 -100 -37 0
-198 25 0
-198 58 0
-198 -34 0
-198 -59 0
-198 -98 0
-198 39 0
-198 -80 0
-198 18 0
-198 -53 0
-198 -27 0
198 -25 -58 34 59 98 -39 80 -18 53 27 0
-199 -36 0
-199 -66 0
-199 44 0
-199 -12 0
-199 -76 0
-199 35 0
-199 -94 0
-199 -59 0
-199 27 0
-199 19 0
199 36 66 -44 12 76 -35 94 59 -27 -19 0
-200 -60 0
-200 -94 0
-200 17 0
-200 -18 0
-200 -82 0
-200 -10 0
-200 -99 0
-200 -48 0
-200 -22 0
-200 98 0
200 60 94 -17 18 82 10 99 48 22 -98 0
191 192 193 194 195 196 197 198 199 200 0
